MAPI Cubic (700 eV)			                  
   1.00000000000000     
    12.6732091903999997    0.0000000000000000    0.0000000000000000
     0.0025501401000000   12.5008008263000008    0.0000000000000000
     0.2648971273000000    0.0022735984000000   12.8503991913999993
   C    N    H    Pb   I 
     8     8    48     8    24
Direct
  0.2431078139950932  0.2171150516462016  0.3059251584898793
  0.1866285404888280  0.3159549242282533  0.6996198497852022
  0.2305785197579104  0.8299714113105965  0.2267902881876466
  0.2016405932733253  0.7148288015901877  0.7686618551259827
  0.7214771628768378  0.1997732515784143  0.2311047318172187
  0.6831192314667285  0.2544091186966304  0.7584727022234187
  0.7732344185706868  0.7837074446036879  0.2110582697144659
  0.7205745148865612  0.8038587701346703  0.7465020615886930
  0.1963454467535485  0.2934760755193385  0.2282543461887219
  0.1121565564871224  0.2689171922100653  0.7717721465753034
  0.2901858501741192  0.7611816632184876  0.2966261836516890
  0.2192099453413341  0.8312673315364519  0.7380318920487680
  0.7168479252505273  0.3239502852371375  0.2053579227997473
  0.7282791964546469  0.1491158105390402  0.7081322901067824
  0.6713729588961124  0.7284524248671580  0.1943545033580736
  0.7035295953262508  0.7180789714068858  0.6653154098894836
  0.2027469094516553  0.2146361017527559  0.3773604483448458
  0.1964841839195444  0.4018732435010229  0.7277510050231937
  0.2589979923167139  0.8190891533286204  0.1444188689967812
  0.1780741325360724  0.7151888026446724  0.8477744225175821
  0.7195238618195281  0.1845334616514933  0.3151492967612884
  0.7223210859831006  0.2606827888403294  0.8362199178587068
  0.7616043275343217  0.8717020466055776  0.2049637918884783
  0.7373346167158911  0.7582506769849545  0.8199875911179885
  0.3283912839257305  0.2336404563532302  0.3125464544242715
  0.1554117468696845  0.3138463505332263  0.6191420872756438
  0.2544733413043442  0.9150033339576557  0.2430080082833830
  0.2782280171371705  0.6706581823493267  0.7612661814354030
  0.7926425177771693  0.1675732124993820  0.1912366888786573
  0.6001561375343952  0.2322829395018803  0.7712835585598697
  0.8340808761143472  0.7598656549153834  0.1524417576931217
  0.6452054687456207  0.8548128174539041  0.7466785311944134
  0.2304885689710648  0.1464030572102887  0.2642398774323653
  0.2642847870192606  0.2752172542298157  0.6935802943595886
  0.1469524941817340  0.8142353672004433  0.2369230810282578
  0.1384232864942004  0.6801219863999597  0.7153639695451097
  0.6482628639573338  0.1629509445604872  0.2012585195254761
  0.7097392551627099  0.3177725476114525  0.7078501931012907
  0.7948811278560267  0.7595769667848938  0.2909695692438896
  0.7824383949175671  0.8547580936647188  0.7235497990280843
  0.1970865457738367  0.3685771046645545  0.2557708476406301
  0.1095794619048832  0.1890107107253406  0.7594322775306989
  0.3683668910668767  0.7687822553231547  0.2990046340251934
  0.2541929966543190  0.8803678437626378  0.7883646369469898
  0.6657370165627338  0.3649991996146701  0.2483199356276005
  0.6733190324878892  0.1147724407753853  0.6604260412648704
  0.6118858214823223  0.7848135751823236  0.2037981950479255
  0.7359681153846938  0.6445078962339412  0.6858014298645786
  0.1188105472398172  0.2699595885675912  0.2284267353393653
  0.0386978757039585  0.3087717361409792  0.7511237441623367
  0.2820072184526792  0.6829676484603167  0.2695072680817687
  0.1548789285036770  0.8770246900139520  0.7241290752407462
  0.7049989729014893  0.3323559009657843  0.1251571240227012
  0.7399143650112573  0.0929435929617138  0.7660364126634989
  0.6615878383481915  0.6702210796751125  0.2484327357401297
  0.7354566834604104  0.7448720320416405  0.5942250069000887
  0.2352264946859229  0.2830403060443586  0.1571029227864766
  0.1246824815580863  0.2825255752896146  0.8468914136875747
  0.2625673045108198  0.7609571017163372  0.3714252052679947
  0.2681028772337638  0.8268200965483061  0.6728316916055515
  0.7976005482748409  0.3576349916681836  0.2248182443109446
  0.7954786277690818  0.1638274272982999  0.6618966460182885
  0.6677969980947351  0.6903049078184141  0.1193908179264642
  0.6236833273472404  0.7150230122258546  0.6599505604847677
  0.4682778093074881  0.5090231270430636  0.4916261166829711
  0.4525713039633222  0.4967057580240195  0.9926271725736668
  0.4887696118342961  0.9993519033703888  0.4879358535738895
  0.4654353754805204  0.9901996254084549  0.9988448552914296
  0.9623286389229513  0.4803187973648677  0.4850160781710873
  0.9512857057842390  0.5142066334415262  0.9797838700011865
  0.9659869556798358  0.9661578283222239  0.4748749893926186
  0.9814110162214563  0.9951927039616568  1.0074308683561894
  0.4329552013548359  0.5207133696945077  0.2311520686583462
  0.4185311635964593  0.4789088740935097  0.7324383595267639
  0.5138593956843249  0.9756369200922761  0.2363642626855446
  0.4819373269482680  1.0115495371540937  0.7436744393003285
  0.9359866050020834  0.4581134665179862  0.2536373345329540
  0.9570158209379589  0.5121893340433102  0.7392264804807361
  0.9776889876367189  1.0249627660850364  0.2312593072702729
  0.9939647374848889  1.0127176496184369  0.7454370812965331
  0.4946775871848134  0.2644538415364394  0.0183226691805386
  0.4906383534668806  0.2772042032697493  0.4928845058785972
  0.4355905152650985  0.7447549804882835 -0.0629117794906322
  0.4244566608663085  0.7764350118619684  0.5592191348742287
  0.9218507593467502  0.2592038735718674  0.0108313893717493
  0.9630764330142519  0.2276502639916973  0.5082575668809644
  1.0384936685921369  0.7619676275305433  0.0207804870495866
  1.0372072045333425  0.7350601402721885  0.4452315046333372
  0.2193585970063215  0.4885060436999312  0.4671744089012239
  0.1802094961363771  0.4241559744092417  0.9702310530385855
  0.2284872315350638  0.9995988274628218  0.5194738727725869
  0.2335484633481503  1.0551626906753551  1.0005722651498683
  0.7030604088321802  0.5785409075937546  0.4241459809502482
  0.6924546022713977  0.5240339012125012  1.0029882564544754
  0.7294952641007599  0.9428341448695280  0.5005977909281198
  0.7230898320625256  0.9699560286965692  0.9677234819828129
 
 -0.29407388E-02 -0.14852033E-03 -0.89837978E-02
  0.52010538E-03  0.86233632E-02 -0.44111061E-02
  0.15677669E-02  0.18713095E-03  0.60768428E-03
 -0.15153109E-02  0.10202247E-02  0.47544727E-02
  0.90410978E-03  0.88752324E-02 -0.33475791E-02
 -0.30120971E-02 -0.16186972E-02  0.71931202E-02
 -0.16374868E-02  0.11069483E-01  0.32349335E-02
 -0.11911224E-02 -0.29970503E-02  0.44347225E-02
 -0.58255712E-02 -0.91767461E-03  0.13302264E-02
 -0.51865859E-02 -0.56568712E-03 -0.73949044E-02
  0.96281174E-02 -0.17569114E-02  0.81643831E-03
  0.53571070E-02  0.10538689E-02 -0.46668274E-02
  0.37894666E-03  0.45433445E-03 -0.37106353E-02
  0.82238401E-02  0.25164215E-02  0.69448980E-02
  0.32615353E-02 -0.29118955E-02 -0.72607988E-03
  0.18122547E-02 -0.37067529E-02 -0.24218808E-03
 -0.48134270E-02 -0.73250509E-03  0.80639190E-02
 -0.39523388E-02  0.10244172E-02  0.46180543E-02
 -0.22349004E-02 -0.37187786E-02 -0.13731825E-02
  0.54265158E-02 -0.52531774E-02  0.11377090E-01
 -0.36234507E-02  0.74587538E-02  0.93396880E-03
  0.74843091E-03 -0.83027547E-02 -0.53644093E-02
 -0.96460173E-03  0.94035408E-02 -0.35201695E-03
 -0.66452200E-02 -0.33825366E-03  0.42196192E-02
 -0.67825573E-02  0.98840062E-02 -0.12610764E-01
  0.19121254E-02  0.10578859E-01 -0.68502836E-02
  0.66223300E-03 -0.77628507E-02 -0.75791784E-02
 -0.14939839E-01 -0.33277006E-03 -0.80666874E-02
  0.35601559E-02  0.24176494E-02  0.29801582E-02
  0.37787670E-02 -0.50112664E-03 -0.68881487E-02
 -0.40816190E-02  0.36492544E-02  0.22155850E-02
  0.77547933E-02 -0.44562034E-02 -0.58389260E-02
 -0.18354014E-02  0.13381890E-02 -0.45413494E-02
  0.34107792E-02 -0.16124828E-01 -0.18239392E-01
 -0.31587156E-02 -0.43833825E-02  0.15282356E-02
  0.63985698E-02  0.93680216E-02  0.74704282E-02
  0.66064201E-02  0.66701124E-02  0.78154587E-02
  0.40356815E-02 -0.25415875E-02  0.30726403E-02
 -0.55180820E-02  0.17912593E-01 -0.28765376E-03
 -0.14555366E-02  0.89500806E-03  0.22565173E-02
 -0.15190829E-01  0.13207195E-01 -0.20454715E-02
  0.80545023E-02  0.45832519E-02  0.10081696E-02
  0.13487290E-02  0.45680682E-03  0.68172250E-02
  0.71498618E-02 -0.80210711E-02  0.99482174E-02
 -0.81848779E-02  0.60415560E-02 -0.54711564E-02
  0.88149022E-03 -0.90613098E-02  0.51455075E-02
 -0.98642786E-03  0.60512173E-04 -0.19659325E-01
 -0.75824613E-02  0.14069367E-02 -0.31231438E-02
 -0.11832254E-02 -0.65448429E-02 -0.10555248E-01
  0.49390251E-02  0.59130457E-03 -0.57387025E-03
  0.13211999E-01  0.28223547E-02 -0.54690459E-02
 -0.55017081E-02 -0.15285939E-01  0.79524809E-02
 -0.72019826E-02 -0.15243967E-01 -0.65293845E-02
  0.12017790E-01  0.51540157E-02 -0.63974561E-02
  0.48511173E-04 -0.42690099E-02  0.42224443E-02
 -0.45355918E-02  0.50175037E-02 -0.36825288E-02
  0.37580747E-02 -0.48657304E-02 -0.33925833E-02
  0.80214301E-02  0.64877402E-02  0.33244041E-02
 -0.68312753E-03  0.18723307E-02  0.83286022E-02
  0.60984283E-02 -0.90752769E-03  0.15316987E-02
 -0.93700452E-02 -0.73141404E-02 -0.35476127E-03
  0.20664208E-02 -0.61233028E-02 -0.20376782E-02
  0.24156965E-02 -0.56146676E-02  0.88541422E-02
 -0.41607341E-02 -0.32806855E-02  0.36249280E-02
  0.10328313E-02  0.18332706E-03  0.15993256E-02
  0.56692249E-04 -0.48503656E-03  0.12410815E-03
  0.76828526E-03  0.90246522E-03 -0.36789631E-03
  0.10386112E-02  0.51166589E-03 -0.11755222E-02
 -0.38859698E-03  0.73224458E-04  0.36580922E-03
 -0.98492661E-03 -0.78756786E-03  0.15908344E-03
 -0.17065096E-02 -0.76480066E-03 -0.50231561E-03
 -0.72007928E-03 -0.89779658E-03  0.60735392E-03
  0.22477372E-02  0.24741892E-02 -0.89769840E-05
 -0.13705807E-02 -0.77372583E-03  0.57124963E-03
 -0.27426293E-03 -0.11760714E-02  0.38464764E-02
  0.14125672E-02 -0.76188225E-03  0.21349721E-02
  0.44989009E-02 -0.72997386E-03  0.13131398E-02
 -0.15446404E-02  0.56145639E-03  0.23458971E-02
  0.64575749E-03 -0.30207655E-02 -0.79224889E-06
 -0.18509782E-03  0.26925656E-02 -0.13997244E-03
 -0.15804112E-02  0.23536002E-02  0.22788987E-02
  0.80570672E-04  0.23847406E-02 -0.62848740E-03
 -0.27125691E-02  0.66162679E-03 -0.29909217E-02
  0.52176631E-03  0.10418145E-02  0.21326675E-02
 -0.35515281E-02 -0.19792258E-02  0.88403992E-03
 -0.75836958E-03  0.28196270E-03 -0.33783503E-02
 -0.12678257E-02 -0.21593707E-02  0.37342410E-03
  0.61227540E-03  0.52458375E-03 -0.17471714E-02
  0.33702987E-02  0.19138680E-03 -0.16097039E-02
 -0.89923971E-03  0.34144032E-02 -0.41101928E-03
 -0.63177253E-03 -0.98427434E-03  0.19726950E-02
 -0.37801505E-02 -0.16150452E-02 -0.34863942E-02
  0.15994114E-02 -0.27363109E-02 -0.21017744E-02
  0.96154642E-03 -0.12479632E-02 -0.19156321E-02
  0.19913312E-02  0.13267673E-02 -0.23060668E-03
  0.14819664E-02  0.41584807E-03  0.18777847E-02
 
           1
   3.00000000000000     
 -0.56041136E+00  0.79738939E-02  0.82663794E-02 -0.56853149E+00
  0.24245553E+00  0.21707979E+00  0.30382784E+00
  0.18677277E+00  0.31802459E+00  0.69859005E+00
  0.23094667E+00  0.83001629E+00  0.22693216E+00
  0.20125864E+00  0.71507344E+00  0.76977181E+00
  0.72170709E+00  0.20190331E+00  0.23032322E+00
  0.68237119E+00  0.25402035E+00  0.76015198E+00
  0.77283047E+00  0.78636381E+00  0.21181348E+00
  0.72027106E+00  0.80313934E+00  0.74753737E+00
  0.19495997E+00  0.29325579E+00  0.22856490E+00
  0.11096490E+00  0.26878175E+00  0.77004576E+00
  0.29246112E+00  0.76076000E+00  0.29681679E+00
  0.22050080E+00  0.83152044E+00  0.73694239E+00
  0.71695571E+00  0.32405948E+00  0.20449165E+00
  0.73019193E+00  0.14971942E+00  0.70975362E+00
  0.67214871E+00  0.72775365E+00  0.19418500E+00
  0.70395995E+00  0.71718942E+00  0.66525887E+00
  0.20156816E+00  0.21445997E+00  0.37924302E+00
  0.19552600E+00  0.40211889E+00  0.72882912E+00
  0.25847583E+00  0.81819676E+00  0.14409829E+00
  0.17930343E+00  0.71392764E+00  0.85043047E+00
  0.71866120E+00  0.18632341E+00  0.31536734E+00
  0.72252483E+00  0.25869048E+00  0.83496757E+00
  0.76137725E+00  0.87395877E+00  0.20488161E+00
  0.73574099E+00  0.75816932E+00  0.82097269E+00
  0.32684678E+00  0.23601300E+00  0.30960240E+00
  0.15589730E+00  0.31638540E+00  0.61754285E+00
  0.25466746E+00  0.91314069E+00  0.24123861E+00
  0.27473084E+00  0.67057867E+00  0.75938297E+00
  0.79347062E+00  0.16815328E+00  0.19193242E+00
  0.60108428E+00  0.23216297E+00  0.76967548E+00
  0.83310369E+00  0.76074133E+00  0.15295900E+00
  0.64706989E+00  0.85374365E+00  0.74531540E+00
  0.23007619E+00  0.14672439E+00  0.26317967E+00
  0.26518197E+00  0.27134832E+00  0.68932220E+00
  0.14619752E+00  0.81318336E+00  0.23727986E+00
  0.13990105E+00  0.68236985E+00  0.71710798E+00
  0.64978828E+00  0.16455134E+00  0.20308308E+00
  0.71067971E+00  0.31716248E+00  0.70856752E+00
  0.79357543E+00  0.76387573E+00  0.29090241E+00
  0.78208279E+00  0.85497279E+00  0.72407660E+00
  0.19349992E+00  0.37174672E+00  0.25529332E+00
  0.11148098E+00  0.19011058E+00  0.75966764E+00
  0.36865287E+00  0.76889159E+00  0.30059615E+00
  0.25583735E+00  0.87844249E+00  0.79068711E+00
  0.66382590E+00  0.36644931E+00  0.24704266E+00
  0.67350303E+00  0.11259765E+00  0.66162729E+00
  0.61174824E+00  0.78482893E+00  0.19920861E+00
  0.73418837E+00  0.64484567E+00  0.68507231E+00
  0.11858228E+00  0.26838938E+00  0.22596255E+00
  0.39869813E-01  0.30891366E+00  0.75098977E+00
  0.28516131E+00  0.68364520E+00  0.26823049E+00
  0.15353850E+00  0.87335596E+00  0.72598563E+00
  0.70332672E+00  0.32869786E+00  0.12363280E+00
  0.74279018E+00  0.94180749E-01  0.76454289E+00
  0.66157892E+00  0.66919640E+00  0.24941849E+00
  0.73440075E+00  0.74607631E+00  0.59336530E+00
  0.23613290E+00  0.28187275E+00  0.15631090E+00
  0.12656478E+00  0.28408239E+00  0.84766752E+00
  0.26236486E+00  0.76140608E+00  0.37336957E+00
  0.26953907E+00  0.82660224E+00  0.67318928E+00
  0.79538456E+00  0.35587973E+00  0.22473542E+00
  0.79597803E+00  0.16235802E+00  0.66142094E+00
  0.66832591E+00  0.68895710E+00  0.12145787E+00
  0.62268087E+00  0.71423554E+00  0.66079682E+00
  0.46851449E+00  0.50906705E+00  0.49199949E+00
  0.45258414E+00  0.49658935E+00  0.99265615E+00
  0.48895323E+00  0.99956850E+00  0.48784997E+00
  0.46568695E+00  0.99032247E+00  0.99857042E+00
  0.96223486E+00  0.48033635E+00  0.48510148E+00
  0.95105182E+00  0.51401762E+00  0.97982101E+00
  0.96558548E+00  0.96597431E+00  0.47475772E+00
  0.98123764E+00  0.99497722E+00  0.75726586E-02
  0.43348721E+00  0.52130714E+00  0.23114997E+00
  0.41820397E+00  0.47872317E+00  0.73257172E+00
  0.51377576E+00  0.97535452E+00  0.23726224E+00
  0.48226133E+00  0.11366606E-01  0.74417286E+00
  0.93704521E+00  0.45793823E+00  0.25394389E+00
  0.95663870E+00  0.51232398E+00  0.73977414E+00
  0.97784200E+00  0.24237829E-01  0.23125912E+00
  0.99392147E+00  0.13363830E-01  0.74540440E+00
  0.49429224E+00  0.26501857E+00  0.18854691E-01
  0.49066038E+00  0.27777653E+00  0.49273778E+00
  0.43496296E+00  0.74491389E+00  0.93638997E+00
  0.42456972E+00  0.77668494E+00  0.55971702E+00
  0.92100582E+00  0.25872885E+00  0.11037774E-01
  0.96291338E+00  0.22771807E+00  0.50746887E+00
  0.38191831E-01  0.76144940E+00  0.20867665E-01
  0.37360643E-01  0.73518611E+00  0.44482362E+00
  0.22016426E+00  0.48855204E+00  0.46679861E+00
  0.17999847E+00  0.42497540E+00  0.97013510E+00
  0.22832810E+00  0.99936253E+00  0.51993441E+00
  0.23267072E+00  0.54775253E-01  0.99975835E+00
  0.70344941E+00  0.57788432E+00  0.42365531E+00
  0.69269163E+00  0.52373449E+00  0.25410411E-02
  0.72996771E+00  0.94315256E+00  0.50054395E+00
  0.72343146E+00  0.97005575E+00  0.96816186E+00
  0.00000000E+00  0.00000000E+00  0.00000000E+00
  0.00000000E+00  0.00000000E+00  0.00000000E+00
  0.00000000E+00  0.00000000E+00  0.00000000E+00
  0.00000000E+00  0.00000000E+00  0.00000000E+00
  0.00000000E+00  0.00000000E+00  0.00000000E+00
  0.00000000E+00  0.00000000E+00  0.00000000E+00
  0.00000000E+00  0.00000000E+00  0.00000000E+00
  0.00000000E+00  0.00000000E+00  0.00000000E+00
  0.00000000E+00  0.00000000E+00  0.00000000E+00
  0.00000000E+00  0.00000000E+00  0.00000000E+00
  0.00000000E+00  0.00000000E+00  0.00000000E+00
  0.00000000E+00  0.00000000E+00  0.00000000E+00
  0.00000000E+00  0.00000000E+00  0.00000000E+00
  0.00000000E+00  0.00000000E+00  0.00000000E+00
  0.00000000E+00  0.00000000E+00  0.00000000E+00
  0.00000000E+00  0.00000000E+00  0.00000000E+00
  0.00000000E+00  0.00000000E+00  0.00000000E+00
  0.00000000E+00  0.00000000E+00  0.00000000E+00
  0.00000000E+00  0.00000000E+00  0.00000000E+00
  0.00000000E+00  0.00000000E+00  0.00000000E+00
  0.00000000E+00  0.00000000E+00  0.00000000E+00
  0.00000000E+00  0.00000000E+00  0.00000000E+00
  0.00000000E+00  0.00000000E+00  0.00000000E+00
  0.00000000E+00  0.00000000E+00  0.00000000E+00
  0.00000000E+00  0.00000000E+00  0.00000000E+00
  0.00000000E+00  0.00000000E+00  0.00000000E+00
  0.00000000E+00  0.00000000E+00  0.00000000E+00
  0.00000000E+00  0.00000000E+00  0.00000000E+00
  0.00000000E+00  0.00000000E+00  0.00000000E+00
  0.00000000E+00  0.00000000E+00  0.00000000E+00
  0.00000000E+00  0.00000000E+00  0.00000000E+00
  0.00000000E+00  0.00000000E+00  0.00000000E+00
  0.00000000E+00  0.00000000E+00  0.00000000E+00
  0.00000000E+00  0.00000000E+00  0.00000000E+00
  0.00000000E+00  0.00000000E+00  0.00000000E+00
  0.00000000E+00  0.00000000E+00  0.00000000E+00
  0.00000000E+00  0.00000000E+00  0.00000000E+00
  0.00000000E+00  0.00000000E+00  0.00000000E+00
  0.00000000E+00  0.00000000E+00  0.00000000E+00
  0.00000000E+00  0.00000000E+00  0.00000000E+00
  0.00000000E+00  0.00000000E+00  0.00000000E+00
  0.00000000E+00  0.00000000E+00  0.00000000E+00
  0.00000000E+00  0.00000000E+00  0.00000000E+00
  0.00000000E+00  0.00000000E+00  0.00000000E+00
  0.00000000E+00  0.00000000E+00  0.00000000E+00
  0.00000000E+00  0.00000000E+00  0.00000000E+00
  0.00000000E+00  0.00000000E+00  0.00000000E+00
  0.00000000E+00  0.00000000E+00  0.00000000E+00
  0.00000000E+00  0.00000000E+00  0.00000000E+00
  0.00000000E+00  0.00000000E+00  0.00000000E+00
  0.00000000E+00  0.00000000E+00  0.00000000E+00
  0.00000000E+00  0.00000000E+00  0.00000000E+00
  0.00000000E+00  0.00000000E+00  0.00000000E+00
  0.00000000E+00  0.00000000E+00  0.00000000E+00
  0.00000000E+00  0.00000000E+00  0.00000000E+00
  0.00000000E+00  0.00000000E+00  0.00000000E+00
  0.00000000E+00  0.00000000E+00  0.00000000E+00
  0.00000000E+00  0.00000000E+00  0.00000000E+00
  0.00000000E+00  0.00000000E+00  0.00000000E+00
  0.00000000E+00  0.00000000E+00  0.00000000E+00
  0.00000000E+00  0.00000000E+00  0.00000000E+00
  0.00000000E+00  0.00000000E+00  0.00000000E+00
  0.00000000E+00  0.00000000E+00  0.00000000E+00
  0.00000000E+00  0.00000000E+00  0.00000000E+00
  0.00000000E+00  0.00000000E+00  0.00000000E+00
  0.00000000E+00  0.00000000E+00  0.00000000E+00
  0.00000000E+00  0.00000000E+00  0.00000000E+00
  0.00000000E+00  0.00000000E+00  0.00000000E+00
  0.00000000E+00  0.00000000E+00  0.00000000E+00
  0.00000000E+00  0.00000000E+00  0.00000000E+00
  0.00000000E+00  0.00000000E+00  0.00000000E+00
  0.00000000E+00  0.00000000E+00  0.00000000E+00
  0.00000000E+00  0.00000000E+00  0.00000000E+00
  0.00000000E+00  0.00000000E+00  0.00000000E+00
  0.00000000E+00  0.00000000E+00  0.00000000E+00
  0.00000000E+00  0.00000000E+00  0.00000000E+00
  0.00000000E+00  0.00000000E+00  0.00000000E+00
  0.00000000E+00  0.00000000E+00  0.00000000E+00
  0.00000000E+00  0.00000000E+00  0.00000000E+00
  0.00000000E+00  0.00000000E+00  0.00000000E+00
  0.00000000E+00  0.00000000E+00  0.00000000E+00
  0.00000000E+00  0.00000000E+00  0.00000000E+00
  0.00000000E+00  0.00000000E+00  0.00000000E+00
  0.00000000E+00  0.00000000E+00  0.00000000E+00
  0.00000000E+00  0.00000000E+00  0.00000000E+00
  0.00000000E+00  0.00000000E+00  0.00000000E+00
  0.00000000E+00  0.00000000E+00  0.00000000E+00
  0.00000000E+00  0.00000000E+00  0.00000000E+00
  0.00000000E+00  0.00000000E+00  0.00000000E+00
  0.00000000E+00  0.00000000E+00  0.00000000E+00
  0.00000000E+00  0.00000000E+00  0.00000000E+00
  0.00000000E+00  0.00000000E+00  0.00000000E+00
  0.00000000E+00  0.00000000E+00  0.00000000E+00
  0.00000000E+00  0.00000000E+00  0.00000000E+00
  0.00000000E+00  0.00000000E+00  0.00000000E+00
  0.00000000E+00  0.00000000E+00  0.00000000E+00
  0.00000000E+00  0.00000000E+00  0.00000000E+00
  0.00000000E+00  0.00000000E+00  0.00000000E+00
  0.00000000E+00  0.00000000E+00  0.00000000E+00
  0.00000000E+00  0.00000000E+00  0.00000000E+00
  0.00000000E+00  0.00000000E+00  0.00000000E+00
  0.00000000E+00  0.00000000E+00  0.00000000E+00
  0.00000000E+00  0.00000000E+00  0.00000000E+00
  0.00000000E+00  0.00000000E+00  0.00000000E+00
  0.00000000E+00  0.00000000E+00  0.00000000E+00
  0.00000000E+00  0.00000000E+00  0.00000000E+00
  0.00000000E+00  0.00000000E+00  0.00000000E+00
  0.00000000E+00  0.00000000E+00  0.00000000E+00
  0.00000000E+00  0.00000000E+00  0.00000000E+00
  0.00000000E+00  0.00000000E+00  0.00000000E+00
  0.00000000E+00  0.00000000E+00  0.00000000E+00
  0.00000000E+00  0.00000000E+00  0.00000000E+00
  0.00000000E+00  0.00000000E+00  0.00000000E+00
  0.00000000E+00  0.00000000E+00  0.00000000E+00
  0.00000000E+00  0.00000000E+00  0.00000000E+00
  0.00000000E+00  0.00000000E+00  0.00000000E+00
  0.00000000E+00  0.00000000E+00  0.00000000E+00
  0.00000000E+00  0.00000000E+00  0.00000000E+00
  0.00000000E+00  0.00000000E+00  0.00000000E+00
  0.00000000E+00  0.00000000E+00  0.00000000E+00
  0.00000000E+00  0.00000000E+00  0.00000000E+00
  0.00000000E+00  0.00000000E+00  0.00000000E+00
  0.00000000E+00  0.00000000E+00  0.00000000E+00
  0.00000000E+00  0.00000000E+00  0.00000000E+00
  0.00000000E+00  0.00000000E+00  0.00000000E+00
  0.00000000E+00  0.00000000E+00  0.00000000E+00
  0.00000000E+00  0.00000000E+00  0.00000000E+00
  0.00000000E+00  0.00000000E+00  0.00000000E+00
  0.00000000E+00  0.00000000E+00  0.00000000E+00
  0.00000000E+00  0.00000000E+00  0.00000000E+00
  0.00000000E+00  0.00000000E+00  0.00000000E+00
  0.00000000E+00  0.00000000E+00  0.00000000E+00
  0.00000000E+00  0.00000000E+00  0.00000000E+00
  0.00000000E+00  0.00000000E+00  0.00000000E+00
  0.00000000E+00  0.00000000E+00  0.00000000E+00
  0.00000000E+00  0.00000000E+00  0.00000000E+00
  0.00000000E+00  0.00000000E+00  0.00000000E+00
  0.00000000E+00  0.00000000E+00  0.00000000E+00
  0.00000000E+00  0.00000000E+00  0.00000000E+00
  0.00000000E+00  0.00000000E+00  0.00000000E+00
  0.00000000E+00  0.00000000E+00  0.00000000E+00
  0.00000000E+00  0.00000000E+00  0.00000000E+00
  0.00000000E+00  0.00000000E+00  0.00000000E+00
  0.00000000E+00  0.00000000E+00  0.00000000E+00
  0.00000000E+00  0.00000000E+00  0.00000000E+00
  0.00000000E+00  0.00000000E+00  0.00000000E+00
  0.00000000E+00  0.00000000E+00  0.00000000E+00
  0.00000000E+00  0.00000000E+00  0.00000000E+00
  0.00000000E+00  0.00000000E+00  0.00000000E+00
  0.00000000E+00  0.00000000E+00  0.00000000E+00
  0.00000000E+00  0.00000000E+00  0.00000000E+00
  0.00000000E+00  0.00000000E+00  0.00000000E+00
  0.00000000E+00  0.00000000E+00  0.00000000E+00
  0.00000000E+00  0.00000000E+00  0.00000000E+00
  0.00000000E+00  0.00000000E+00  0.00000000E+00
  0.00000000E+00  0.00000000E+00  0.00000000E+00
  0.00000000E+00  0.00000000E+00  0.00000000E+00
  0.00000000E+00  0.00000000E+00  0.00000000E+00
  0.00000000E+00  0.00000000E+00  0.00000000E+00
  0.00000000E+00  0.00000000E+00  0.00000000E+00
  0.00000000E+00  0.00000000E+00  0.00000000E+00
  0.00000000E+00  0.00000000E+00  0.00000000E+00
  0.00000000E+00  0.00000000E+00  0.00000000E+00
  0.00000000E+00  0.00000000E+00  0.00000000E+00
  0.00000000E+00  0.00000000E+00  0.00000000E+00
  0.00000000E+00  0.00000000E+00  0.00000000E+00
  0.00000000E+00  0.00000000E+00  0.00000000E+00
  0.00000000E+00  0.00000000E+00  0.00000000E+00
  0.00000000E+00  0.00000000E+00  0.00000000E+00
  0.00000000E+00  0.00000000E+00  0.00000000E+00
  0.00000000E+00  0.00000000E+00  0.00000000E+00
  0.00000000E+00  0.00000000E+00  0.00000000E+00
  0.00000000E+00  0.00000000E+00  0.00000000E+00
  0.00000000E+00  0.00000000E+00  0.00000000E+00
  0.00000000E+00  0.00000000E+00  0.00000000E+00
  0.00000000E+00  0.00000000E+00  0.00000000E+00
  0.00000000E+00  0.00000000E+00  0.00000000E+00
  0.00000000E+00  0.00000000E+00  0.00000000E+00
  0.00000000E+00  0.00000000E+00  0.00000000E+00
  0.00000000E+00  0.00000000E+00  0.00000000E+00
  0.00000000E+00  0.00000000E+00  0.00000000E+00
  0.00000000E+00  0.00000000E+00  0.00000000E+00
  0.00000000E+00  0.00000000E+00  0.00000000E+00
  0.00000000E+00  0.00000000E+00  0.00000000E+00
  0.00000000E+00  0.00000000E+00  0.00000000E+00
  0.00000000E+00  0.00000000E+00  0.00000000E+00
  0.00000000E+00  0.00000000E+00  0.00000000E+00
  0.00000000E+00  0.00000000E+00  0.00000000E+00
  0.00000000E+00  0.00000000E+00  0.00000000E+00
  0.00000000E+00  0.00000000E+00  0.00000000E+00
  0.00000000E+00  0.00000000E+00  0.00000000E+00
  0.00000000E+00  0.00000000E+00  0.00000000E+00
