MAPI Cubic (700 eV)			                  
1.0
       12.6732091904         0.0000000000         0.0000000000
        0.0025501401        12.5008008263         0.0000000000
        0.2648971273         0.0022735984        12.8503991914
    C    N    H   Pb    I
    8    8   48    8   24
Direct
     0.196947858         0.249910399         0.228850916
     0.196947858         0.249910399         0.728850901
     0.196947858         0.749910414         0.228850916
     0.196947858         0.749910414         0.728850901
     0.696947873         0.249910399         0.228850916
     0.696947873         0.249910399         0.728850901
     0.696947873         0.749910414         0.228850916
     0.696947873         0.749910414         0.728850901
     0.304423660         0.250001371         0.273879945
     0.304423660         0.250001371         0.773879945
     0.304423660         0.750001371         0.273879945
     0.304423660         0.750001371         0.773879945
     0.804423690         0.250001371         0.273879945
     0.804423690         0.250001371         0.773879945
     0.804423690         0.750001371         0.273879945
     0.804423690         0.750001371         0.773879945
     0.205029249         0.249827787         0.143939480
     0.205029249         0.249827787         0.643939495
     0.205029249         0.749827802         0.143939480
     0.205029249         0.749827802         0.643939495
     0.705029249         0.249827787         0.143939480
     0.705029249         0.249827787         0.643939495
     0.705029249         0.749827802         0.143939480
     0.705029249         0.749827802         0.643939495
     0.154881150         0.321736604         0.255245417
     0.154881150         0.321736604         0.755245447
     0.154881150         0.821736574         0.255245417
     0.154881150         0.821736574         0.755245447
     0.654881120         0.321736604         0.255245417
     0.654881120         0.321736604         0.755245447
     0.654881120         0.821736574         0.255245417
     0.654881120         0.821736574         0.755245447
     0.154980615         0.178086117         0.255388230
     0.154980615         0.178086117         0.755388260
     0.154980615         0.678086102         0.255388230
     0.154980615         0.678086102         0.755388260
     0.654980600         0.178086117         0.255388230
     0.654980600         0.178086117         0.755388260
     0.654980600         0.678086102         0.255388230
     0.654980600         0.678086102         0.755388260
     0.347594619         0.317215353         0.251049459
     0.347594619         0.317215353         0.751049459
     0.347594619         0.817215323         0.251049459
     0.347594619         0.817215323         0.751049459
     0.847594619         0.317215353         0.251049459
     0.847594619         0.317215353         0.751049459
     0.847594619         0.817215323         0.251049459
     0.847594619         0.817215323         0.751049459
     0.347661018         0.182771608         0.251189917
     0.347661018         0.182771608         0.751189947
     0.347661018         0.682771623         0.251189917
     0.347661018         0.682771623         0.751189947
     0.847661018         0.182771608         0.251189917
     0.847661018         0.182771608         0.751189947
     0.847661018         0.682771623         0.251189917
     0.847661018         0.682771623         0.751189947
     0.303140283         0.250086248         0.354508281
     0.303140283         0.250086248         0.854508281
     0.303140283         0.750086248         0.354508281
     0.303140283         0.750086248         0.854508281
     0.803140283         0.250086248         0.354508281
     0.803140283         0.250086248         0.854508281
     0.803140283         0.750086248         0.354508281
     0.803140283         0.750086248         0.854508281
     0.472488463         0.499988437         0.488806605
     0.472488463         0.499988437         0.988806605
     0.472488463         0.999988437         0.488806605
     0.472488463         0.999988437         0.988806605
     0.972488463         0.499988437         0.488806605
     0.972488463         0.499988437         0.988806605
     0.972488463         0.999988437         0.488806605
     0.972488463         0.999988437         0.988806605
     0.454882413         0.499989480         0.237514243
     0.454882413         0.499989480         0.737514257
     0.454882413         0.999989510         0.237514243
     0.454882413         0.999989510         0.737514257
     0.954882383         0.499989480         0.237514243
     0.954882383         0.499989480         0.737514257
     0.954882383         0.999989510         0.237514243
     0.954882383         0.999989510         0.737514257
     0.449796617         0.249982014         0.011798289
     0.449796617         0.249982014         0.511798263
     0.449796617         0.749981999         0.011798289
     0.449796617         0.749981999         0.511798263
     0.949796617         0.249982014         0.011798289
     0.949796617         0.249982014         0.511798263
     0.949796617         0.749981999         0.011798289
     0.949796617         0.749981999         0.511798263
     0.216063559         0.499996006         0.461395681
     0.216063559         0.499996006         0.961395681
     0.216063559         0.999996006         0.461395681
     0.216063559         0.999996006         0.961395681
     0.716063559         0.499996006         0.461395681
     0.716063559         0.499996006         0.961395681
     0.716063559         0.999996006         0.461395681
     0.716063559         0.999996006         0.961395681
